projected/problems_b25_r0_d7_m100_s666/_DIMACS/b25_d7_r0_s666_020.cnf
p cnf 299 533 25
c p show 1 2 3 4 5 6 7 8 9 10 11 12 13 14 15 16 17 18 19 20 21 22 23 24 25
-42 -7 -21 0
-43 -6 25 0
-44 43 42 0
-45 6 0
-45 -25 0
-46 7 0
-46 21 0
-47 46 45 0
-48 47 0
-48 44 0
-49 -7 0
-49 7 0
-50 18 3 0
-51 50 49 0
-52 51 0
-52 48 0
-53 -7 11 0
-54 -7 0
-54 5 0
-55 54 0
-55 53 0
-56 7 0
-56 -17 0
-57 -18 0
-57 7 0
-58 57 56 0
-59 58 0
-59 55 0
-60 59 52 0
-61 7 0
-61 -11 0
-62 7 -5 0
-63 62 61 0
-64 -7 17 0
-65 18 -7 0
-66 65 0
-66 64 0
-67 66 63 0
-68 45 0
-68 46 0
-69 42 0
-69 43 0
-70 69 68 0
-71 7 -7 0
-72 -18 0
-72 -3 0
-73 72 0
-73 71 0
-74 73 70 0
-75 74 67 0
-76 75 0
-76 60 0
-77 -24 1 0
-78 21 0
-78 -13 0
-79 78 77 0
-80 12 0
-80 22 0
-81 17 -9 0
-82 81 80 0
-83 82 79 0
-84 15 0
-84 5 0
-85 -21 -10 0
-86 85 84 0
-87 -4 21 0
-88 9 0
-88 -16 0
-89 88 87 0
-90 -9 16 0
-91 4 0
-91 -21 0
-92 91 90 0
-93 92 0
-93 89 0
-94 93 0
-94 86 0
-95 94 0
-95 83 0
-96 95 0
-96 76 0
-97 24 0
-97 -1 0
-98 -21 13 0
-99 98 0
-99 97 0
-100 -12 -22 0
-101 -17 0
-101 9 0
-102 101 0
-102 100 0
-103 102 0
-103 99 0
-104 -15 -5 0
-105 21 0
-105 10 0
-106 105 0
-106 104 0
-107 90 0
-107 91 0
-108 87 0
-108 88 0
-109 108 107 0
-110 109 106 0
-111 110 103 0
-112 67 0
-112 74 0
-113 52 0
-113 59 0
-114 113 112 0
-115 114 0
-115 111 0
-116 115 96 0
-117 -21 17 0
-118 -4 5 0
-119 118 0
-119 117 0
-120 -11 0
-120 19 0
-121 -20 -3 0
-122 121 120 0
-123 122 0
-123 119 0
-124 7 20 0
-125 -23 0
-125 -14 0
-126 14 0
-126 23 0
-127 126 125 0
-128 127 124 0
-129 -17 24 0
-130 19 -8 0
-131 8 -19 0
-132 131 0
-132 130 0
-133 132 0
-133 129 0
-134 133 0
-134 128 0
-135 134 0
-135 123 0
-136 14 0
-136 -9 0
-137 9 0
-137 -14 0
-138 137 136 0
-139 6 13 0
-140 139 138 0
-141 -23 3 0
-142 -13 24 0
-143 142 141 0
-144 143 140 0
-145 23 0
-145 -3 0
-146 13 0
-146 -24 0
-147 146 0
-147 145 0
-148 -14 9 0
-149 -9 14 0
-150 149 0
-150 148 0
-151 -6 0
-151 -13 0
-152 151 0
-152 150 0
-153 152 147 0
-154 153 0
-154 144 0
-155 -19 0
-155 3 0
-156 -19 15 0
-157 156 0
-157 155 0
-159 -5 8 0
-160 -9 5 0
-161 160 0
-161 159 0
-162 161 157 0
-163 162 0
-163 154 0
-165 163 135 0
-166 165 116 0
-167 12 -5 0
-168 -19 -13 0
-169 168 167 0
-171 25 0
-171 22 0
-172 1 22 0
-173 172 0
-173 171 0
-174 173 169 0
-175 -25 -22 0
-177 -1 0
-177 -22 0
-178 177 175 0
-179 -12 0
-179 5 0
-180 19 0
-180 13 0
-181 180 0
-181 179 0
-183 181 178 0
-184 183 0
-184 174 0
-185 1 -20 0
-186 20 -1 0
-187 186 0
-187 185 0
-189 13 0
-189 20 0
-190 189 0
-190 187 0
-191 -13 -20 0
-192 -1 0
-192 20 0
-193 -20 0
-193 1 0
-195 193 192 0
-196 195 0
-196 191 0
-197 196 190 0
-198 1 0
-198 -23 0
-199 11 0
-199 -14 0
-201 199 0
-201 198 0
-202 201 0
-202 197 0
-203 202 184 0
-204 -15 0
-204 -16 0
-205 -3 0
-205 14 0
-207 205 0
-207 204 0
-208 -17 3 0
-209 16 20 0
-210 209 208 0
-211 210 0
-211 207 0
-212 -22 -7 0
-213 7 22 0
-214 213 0
-214 212 0
-215 -17 0
-216 215 0
-216 214 0
-217 -5 0
-217 5 0
-218 -21 3 0
-219 218 0
-219 217 0
-220 21 0
-220 -3 0
-221 5 -5 0
-222 221 0
-222 220 0
-223 222 219 0
-224 223 216 0
-225 220 221 0
-226 217 218 0
-227 226 0
-227 225 0
-228 22 0
-228 7 0
-229 -7 0
-229 -22 0
-230 229 228 0
-231 17 0
-232 231 230 0
-233 232 227 0
-234 233 0
-234 224 0
-235 234 211 0
-236 235 203 0
-237 15 16 0
-238 3 -14 0
-239 238 237 0
-240 17 0
-240 -3 0
-241 -16 0
-241 -20 0
-242 241 0
-242 240 0
-243 242 239 0
-244 227 0
-244 232 0
-245 216 0
-245 223 0
-246 245 244 0
-247 246 0
-247 243 0
-248 178 0
-248 181 0
-249 169 0
-249 173 0
-250 249 248 0
-251 191 195 0
-252 187 189 0
-253 252 0
-253 251 0
-254 -1 23 0
-255 -11 14 0
-256 255 254 0
-257 256 253 0
-258 257 0
-258 250 0
-259 258 247 0
-260 259 0
-260 236 0
-261 6 -22 0
-262 -7 5 0
-263 262 0
-263 261 0
-264 -19 -5 0
-265 -25 0
-265 -23 0
-266 23 0
-266 25 0
-267 266 265 0
-268 267 264 0
-269 268 0
-269 263 0
-270 -13 0
-270 -14 0
-271 12 0
-271 25 0
-272 -25 0
-272 -12 0
-273 272 271 0
-274 273 0
-274 270 0
-275 13 0
-276 -13 0
-277 276 275 0
-278 9 -11 0
-279 278 0
-279 277 0
-280 -9 0
-280 11 0
-281 -13 0
-282 13 0
-283 282 0
-283 281 0
-284 283 0
-284 280 0
-285 284 279 0
-286 285 274 0
-287 286 269 0
-288 7 0
-288 8 0
-289 -8 0
-289 -7 0
-290 289 288 0
-291 -22 -2 0
-292 291 0
-292 290 0
-293 -15 0
-293 -12 0
-294 24 5 0
-295 294 0
-295 293 0
-296 295 292 0
-297 5 0
-297 -6 0
-298 4 0
-298 22 0
-299 298 0
-299 297 0
-26 13 0
-26 25 0
-27 -4 0
-27 -23 0
-158 27 26 0
-164 158 299 0
-170 164 0
-170 296 0
-176 -5 6 0
-182 -4 -22 0
-188 182 176 0
-194 -13 -25 0
-200 4 23 0
-206 200 0
-206 194 0
-31 206 0
-31 188 0
-33 -7 -8 0
-28 8 7 0
-29 28 0
-29 33 0
-30 22 0
-30 2 0
-32 30 29 0
-34 15 12 0
-35 -24 0
-35 -5 0
-36 35 34 0
-37 36 0
-37 32 0
-38 37 0
-38 31 0
-39 38 170 0
-40 39 0
-40 287 0
-41 40 0
-41 260 0
41 0
166 0
-97 -77 0
-98 -78 0
-99 -79 0
-79 -99 0
-80 -100 0
-100 -80 0
-101 -81 0
-102 -82 0
-82 -102 0
-83 -103 0
-84 -104 0
-104 -84 0
-105 -85 0
-106 -86 0
-86 -106 0
-88 -90 0
-90 -88 0
-87 -91 0
-93 -109 0
-94 -110 0
-95 -111 0
-61 -53 0
-53 -61 0
-62 -54 0
-54 -62 0
-55 -63 0
-64 -56 0
-56 -64 0
-57 -65 0
-58 -66 0
-59 -67 0
-67 -59 0
-45 -43 0
-46 -42 0
-42 -46 0
-48 -70 0
-49 -71 0
-71 -49 0
-72 -50 0
-73 -51 0
-51 -73 0
-52 -74 0
-76 -114 0
-114 -76 0
-141 -145 0
-146 -142 0
-142 -146 0
-143 -147 0
-147 -143 0
-150 -138 0
-151 -139 0
-152 -140 0
-140 -152 0
-204 -237 0
-237 -204 0
-205 -238 0
-238 -205 0
-239 -207 0
-207 -239 0
-240 -208 0
-209 -241 0
-241 -209 0
-242 -210 0
-210 -242 0
-211 -243 0
-220 -218 0
-218 -220 0
-221 -217 0
-227 -223 0
-214 -230 0
-230 -214 0
-231 -215 0
-232 -216 0
-216 -232 0
-234 -246 0
-235 -247 0
-247 -235 0
-175 -171 0
-177 -172 0
-178 -173 0
-167 -179 0
-168 -180 0
-169 -181 0
-184 -250 0
-250 -184 0
-191 -189 0
-189 -191 0
-187 -195 0
-195 -187 0
-253 -197 0
-197 -253 0
-198 -254 0
-199 -255 0
-201 -256 0
-202 -257 0
-257 -202 0
-258 -203 0
-203 -258 0
-280 -278 0
-278 -280 0
-283 -277 0
-176 -297 0
-298 -182 0
-182 -298 0
-188 -299 0
-194 -26 0
-26 -194 0
-200 -27 0
-27 -200 0
-158 -206 0
-206 -158 0
-31 -164 0
-164 -31 0
-29 -290 0
-290 -29 0
-291 -30 0
-292 -32 0
-32 -292 0
-293 -34 0
-294 -35 0
-295 -36 0
-36 -295 0
-37 -296 0
