projected/problems_b25_r0_d7_m100_s666/b25_d7_r0_s666_020.smt2
(set-logic QF_UF)
(declare-fun A0 () Bool)
(declare-fun A1 () Bool)
(declare-fun A2 () Bool)
(declare-fun A3 () Bool)
(declare-fun A4 () Bool)
(declare-fun A5 () Bool)
(declare-fun A6 () Bool)
(declare-fun A7 () Bool)
(declare-fun A8 () Bool)
(declare-fun A9 () Bool)
(declare-fun A10 () Bool)
(declare-fun A11 () Bool)
(declare-fun A12 () Bool)
(declare-fun A13 () Bool)
(declare-fun A14 () Bool)
(declare-fun A15 () Bool)
(declare-fun A16 () Bool)
(declare-fun A17 () Bool)
(declare-fun A18 () Bool)
(declare-fun A19 () Bool)
(declare-fun A20 () Bool)
(declare-fun A21 () Bool)
(declare-fun A22 () Bool)
(declare-fun A23 () Bool)
(declare-fun A24 () Bool)
(assert (let ((.def_0 (not A0))) (let ((.def_1 (and A23 .def_0))) (let ((.def_2 (not A20))) (let ((.def_3 (or .def_2 A12))) (let ((.def_4 (and .def_3 .def_1))) (let ((.def_5 (not .def_4))) (let ((.def_6 (and A11 A21))) (let ((.def_7 (not .def_6))) (let ((.def_8 (not A16))) (let ((.def_9 (and .def_8 A8))) (let ((.def_10 (and .def_9 .def_7))) (let ((.def_11 (not .def_10))) (let ((.def_12 (or .def_11 .def_5))) (let ((.def_13 (and A14 A4))) (let ((.def_14 (not .def_13))) (let ((.def_15 (and A20 A9))) (let ((.def_16 (and .def_15 .def_14))) (let ((.def_17 (not .def_16))) (let ((.def_18 (not A15))) (let ((.def_19 (and A8 .def_18))) (let ((.def_20 (not .def_19))) (let ((.def_21 (not A3))) (let ((.def_22 (or .def_21 A20))) (let ((.def_23 (= .def_22 .def_20))) (let ((.def_24 (and .def_23 .def_17))) (let ((.def_25 (and .def_24 .def_12))) (let ((.def_26 (not A10))) (let ((.def_27 (and A6 .def_26))) (let ((.def_28 (not .def_27))) (let ((.def_29 (not A4))) (let ((.def_30 (or A6 .def_29))) (let ((.def_31 (not .def_30))) (let ((.def_32 (and .def_31 .def_28))) (let ((.def_33 (not A6))) (let ((.def_34 (or .def_33 A16))) (let ((.def_35 (not .def_34))) (let ((.def_36 (not A17))) (let ((.def_37 (and .def_36 A6))) (let ((.def_38 (or .def_37 .def_35))) (let ((.def_39 (and .def_38 .def_32))) (let ((.def_40 (not .def_39))) (let ((.def_41 (not A24))) (let ((.def_42 (and A5 .def_41))) (let ((.def_43 (and A6 A20))) (let ((.def_44 (not .def_43))) (let ((.def_45 (= .def_44 .def_42))) (let ((.def_46 (and .def_33 A6))) (let ((.def_47 (not .def_46))) (let ((.def_48 (not A2))) (let ((.def_49 (and .def_36 .def_48))) (let ((.def_50 (and .def_49 .def_47))) (let ((.def_51 (not .def_50))) (let ((.def_52 (and .def_51 .def_45))) (let ((.def_53 (= .def_52 .def_40))) (let ((.def_54 (not .def_53))) (let ((.def_55 (= .def_54 .def_25))) (let ((.def_56 (not .def_55))) (let ((.def_57 (or .def_2 A16))) (let ((.def_58 (not .def_57))) (let ((.def_59 (and A3 .def_29))) (let ((.def_60 (or .def_59 .def_58))) (let ((.def_61 (not .def_60))) (let ((.def_62 (and .def_26 A18))) (let ((.def_63 (not .def_62))) (let ((.def_64 (not A19))) (let ((.def_65 (or .def_64 .def_48))) (let ((.def_66 (not .def_65))) (let ((.def_67 (and .def_66 .def_63))) (let ((.def_68 (not .def_67))) (let ((.def_69 (and .def_68 .def_61))) (let ((.def_70 (or A6 A19))) (let ((.def_71 (not A22))) (let ((.def_72 (= A13 .def_71))) (let ((.def_73 (not .def_72))) (let ((.def_74 (or .def_73 .def_70))) (let ((.def_75 (not .def_74))) (let ((.def_76 (not A23))) (let ((.def_77 (and A16 .def_76))) (let ((.def_78 (not A18))) (let ((.def_79 (not A7))) (let ((.def_80 (= .def_79 .def_78))) (let ((.def_81 (not .def_80))) (let ((.def_82 (or .def_81 .def_77))) (let ((.def_83 (or .def_82 .def_75))) (let ((.def_84 (not .def_83))) (let ((.def_85 (and .def_84 .def_69))) (let ((.def_86 (not .def_85))) (let ((.def_87 (or .def_71 A2))) (let ((.def_88 (and A12 .def_76))) (let ((.def_89 (not .def_88))) (let ((.def_90 (or .def_89 .def_87))) (let ((.def_91 (not .def_90))) (let ((.def_92 (= A8 A13))) (let ((.def_93 (not A12))) (let ((.def_94 (not A5))) (let ((.def_95 (and .def_94 .def_93))) (let ((.def_96 (and .def_95 .def_92))) (let ((.def_97 (not .def_96))) (let ((.def_98 (= .def_97 .def_91))) (let ((.def_99 (and .def_78 A2))) (let ((.def_100 (not .def_99))) (let ((.def_101 (or .def_78 A14))) (let ((.def_102 (not .def_101))) (let ((.def_103 (or .def_102 .def_100))) (let ((.def_104 (and A4 .def_79))) (let ((.def_105 (not .def_104))) (let ((.def_106 (not A8))) (let ((.def_107 (or .def_106 A4))) (let ((.def_108 (and .def_107 .def_105))) (let ((.def_109 (not .def_108))) (let ((.def_110 (and .def_109 .def_103))) (let ((.def_111 (not .def_110))) (let ((.def_112 (and .def_111 .def_98))) (let ((.def_113 (not .def_112))) (let ((.def_114 (and .def_113 .def_86))) (let ((.def_115 (not .def_114))) (let ((.def_116 (or .def_115 .def_56))) (let ((.def_117 (not .def_116))) (let ((.def_118 (not A14))) (let ((.def_119 (and .def_118 .def_18))) (let ((.def_120 (not .def_119))) (let ((.def_121 (and .def_48 A13))) (let ((.def_122 (not .def_121))) (let ((.def_123 (or .def_122 .def_120))) (let ((.def_124 (not .def_123))) (let ((.def_125 (and A16 .def_48))) (let ((.def_126 (or A15 A19))) (let ((.def_127 (not .def_126))) (let ((.def_128 (and .def_127 .def_125))) (let ((.def_129 (not .def_128))) (let ((.def_130 (and .def_129 .def_124))) (let ((.def_131 (and A20 .def_48))) (let ((.def_132 (not .def_131))) (let ((.def_133 (or A4 .def_29))) (let ((.def_134 (= .def_133 .def_132))) (let ((.def_135 (= .def_33 A21))) (let ((.def_136 (not .def_135))) (let ((.def_137 (and A16 A16))) (let ((.def_138 (or .def_137 .def_136))) (let ((.def_139 (not .def_138))) (let ((.def_140 (= .def_139 .def_134))) (let ((.def_141 (or .def_140 .def_130))) (let ((.def_142 (not .def_141))) (let ((.def_143 (not A21))) (let ((.def_144 (or .def_41 .def_143))) (let ((.def_145 (and .def_0 .def_143))) (let ((.def_146 (or .def_145 .def_144))) (let ((.def_147 (or A11 .def_29))) (let ((.def_148 (or .def_78 .def_93))) (let ((.def_149 (or .def_148 .def_147))) (let ((.def_150 (= .def_149 .def_146))) (let ((.def_151 (not .def_150))) (let ((.def_152 (or .def_93 .def_64))) (let ((.def_153 (not .def_152))) (let ((.def_154 (= .def_64 .def_0))) (let ((.def_155 (not .def_154))) (let ((.def_156 (= .def_155 .def_153))) (let ((.def_157 (not .def_156))) (let ((.def_158 (and A0 .def_71))) (let ((.def_159 (not A13))) (let ((.def_160 (and A10 .def_159))) (let ((.def_161 (and .def_160 .def_158))) (let ((.def_162 (and .def_161 .def_157))) (let ((.def_163 (not .def_162))) (let ((.def_164 (and .def_163 .def_151))) (let ((.def_165 (not .def_164))) (let ((.def_166 (= .def_165 .def_142))) (let ((.def_167 (not .def_166))) (let ((.def_168 (and .def_94 A21))) (let ((.def_169 (or .def_33 A4))) (let ((.def_170 (not .def_169))) (let ((.def_171 (or .def_170 .def_168))) (let ((.def_172 (and A18 A4))) (let ((.def_173 (= A22 .def_41))) (let ((.def_174 (and .def_173 .def_172))) (let ((.def_175 (or .def_174 .def_171))) (let ((.def_176 (not .def_175))) (let ((.def_177 (or A12 A13))) (let ((.def_178 (= .def_41 A11))) (let ((.def_179 (or .def_178 .def_177))) (let ((.def_180 (not .def_179))) (let ((.def_181 (and .def_106 A10))) (let ((.def_182 (not .def_181))) (let ((.def_183 (= .def_93 A12))) (let ((.def_184 (= .def_183 .def_182))) (let ((.def_185 (not .def_184))) (let ((.def_186 (or .def_185 .def_180))) (let ((.def_187 (or .def_186 .def_176))) (let ((.def_188 (or .def_29 A5))) (let ((.def_189 (and A3 A21))) (let ((.def_190 (not .def_189))) (let ((.def_191 (or .def_190 .def_188))) (let ((.def_192 (or .def_93 .def_41))) (let ((.def_193 (not .def_192))) (let ((.def_194 (or A3 A22))) (let ((.def_195 (not .def_194))) (let ((.def_196 (or .def_195 .def_193))) (let ((.def_197 (not .def_196))) (let ((.def_198 (and .def_197 .def_191))) (let ((.def_199 (not .def_198))) (let ((.def_200 (= .def_79 A6))) (let ((.def_201 (not .def_200))) (let ((.def_202 (not A1))) (let ((.def_203 (or .def_143 .def_202))) (let ((.def_204 (and .def_203 .def_201))) (let ((.def_205 (not .def_204))) (let ((.def_206 (not A11))) (let ((.def_207 (and .def_118 .def_206))) (let ((.def_208 (or A23 A4))) (let ((.def_209 (and .def_208 .def_207))) (let ((.def_210 (not .def_209))) (let ((.def_211 (and .def_210 .def_205))) (let ((.def_212 (= .def_211 .def_199))) (let ((.def_213 (not .def_212))) (let ((.def_214 (and .def_213 .def_187))) (let ((.def_215 (not .def_214))) (let ((.def_216 (or .def_215 .def_167))) (let ((.def_217 (or .def_216 .def_117))) (let ((.def_218 (not .def_217))) .def_218))))))))))))))))))))))))))))))))))))))))))))))))))))))))))))))))))))))))))))))))))))))))))))))))))))))))))))))))))))))))))))))))))))))))))))))))))))))))))))))))))))))))))))))))))))))))))))))))))))))))))))))))))))))))))))
(check-sat)
